30	13000	3000	1200
3649	706	780
3353	767	550
3214	796	623
3261	785	747
2856	754	613
4247	524	538
4024	699	736
4791	865	614
2328	583	619
4721	830	526
4063	588	550
4006	768	736
3354	690	618
3411	822	755
4103	617	525
2536	656	581
2435	563	539
4208	566	502
3658	592	789
4524	513	760
4037	749	772
4043	650	615
3230	886	655
3416	535	648
3055	568	589
2147	869	624
2417	603	786
4059	810	747
2487	669	584
3451	703	622
